c graph3
p edge 20 63
e 1 3
e 2 6
e 3 16
e 4 10
e 5 16
e 6 12
e 7 20
e 8 18
e 9 9
e 10 15
e 11 7
e 12 17
e 13 17
e 14 13
e 15 17
e 16 11
e 17 7
e 18 7
e 19 13
e 20 19
e 16 4
e 8 15
e 20 16
e 9 2
e 17 17
e 4 4
e 1 17
e 6 10
e 7 13
e 18 1
e 13 16
e 8 2
e 19 15
e 1 19
e 16 2
e 9 19
e 8 9
e 17 6
e 1 6
e 8 4
e 15 2
e 19 19
e 14 11
e 18 12
e 10 5
e 6 15
e 2 12
e 7 14
e 4 2
e 9 11
e 17 4
e 3 6
e 12 13
e 18 2
e 3 20
e 7 12
e 12 8
e 3 18
e 15 15
e 18 14
e 4 11
e 9 18
e 16 16
